problem_generation/data/GISP/train/er_n=62_m=1122_p=0.60_SET2_setparam=100.00_alpha=0.50_230.lp
maximize
OBJ:100x0 + 100x1 + 100x2 + 100x3 + 100x4 + 100x5 + 100x6 + 100x7 + 100x8 + 100x9 + 100x10 + 100x11 + 100x12 + 100x13 + 100x14 + 100x15 + 100x16 + 100x17 + 100x18 + 100x19 + 100x20 + 100x21 + 100x22 + 100x23 + 100x24 + 100x25 + 100x26 + 100x27 + 100x28 + 100x29 + 100x30 + 100x31 + 100x32 + 100x33 + 100x34 + 100x35 + 100x36 + 100x37 + 100x38 + 100x39 + 100x40 + 100x41 + 100x42 + 100x43 + 100x44 + 100x45 + 100x46 + 100x47 + 100x48 + 100x49 + 100x50 + 100x51 + 100x52 + 100x53 + 100x54 + 100x55 + 100x56 + 100x57 + 100x58 + 100x59 + 100x60 + 100x61 - y7_17 - y18_26 - y17_58 - y28_58 - y7_35 - y18_44 - y8_9 - y8_18 - y48_54 - y6_48 - y40_50 - y6_57 - y10_45 - y2_41 - y10_54 - y44_56 - y2_50 - y14_15 - y22_28 - y14_24 - y43_60 - y22_37 - y17_44 - y18_21 - y47_57 - y9_49 - y9_58 - y29_45 - y21_41 - y6_52 - y10_31 - y2_27 - y25_29 - y10_58 - y22_23 - y14_19 - y32_55 - y43_55 - y3_28 - y55_56 - y36_52 - y47_52 - y17_48 - y28_57 - y6_29 - y29_31 - y29_40 - y29_49 - y40_49 - y21_45 - y40_58 - y54_60 - y25_42 - y3_5 - y32_41 - y22_27 - y13_46 - y35_46 - y3_23 - y14_23 - y17_25 - y36_38 - y55_60 - y17_43 - y36_56 - y5_50 - y5_59 - y17_61 - y6_33 - y6_51 - y21_49 - y39_48 - y39_57 - y25_28 - y13_32 - y3_9 - y3_18 - y24_50 - y16_46 - y1_57 - y16_55 - y9_25 - y36_51 - y9_34 - y50_53 - y6_28 - y21_26 - y39_52 - y20_48 - y10_25 - y12_44 - y2_21 - y20_57 - y31_57 - y13_27 - y4_58 - y24_36 - y32_49 - y16_32 - y43_49 - y43_58 - y16_50 - y16_59 - y36_37 - y5_31 - y17_33 - y5_40 - y9_47 - y6_23 - y42_44 - y6_32 - y8_51 - y20_34 - y31_43 - y12_39 - y23_39 - y2_16 - y31_52 - y12_48 - y20_61 - y23_57 - y4_53 - y16_18 - y32_35 - y24_31 - y43_44 - y16_27 - y13_40 - y24_40 - y35_40 - y16_36 - y13_49 - y24_49 - y35_49 - y5_8 - y35_58 - y5_26 - y38_60 - y49_60 - y5_44 - y8_46 - y19_46 - y27_59 - y42_48 - y50_61 - y8_55 - y19_55 - y0_51 - y20_29 - y0_60 - y12_34 - y23_34 - y31_47 - y4_30 - y39_60 - y12_43 - y12_61 - y24_26 - y4_57 - y34_58 - y1_33 - y9_10 - y17_23 - y49_55 - y7_58 - y27_36 - y6_13 - y8_32 - y19_41 - y30_41 - y30_50 - y42_61 - y39_46 - y23_29 - y20_42 - y23_38 - y31_51 - y12_47 - y4_52 - y24_30 - y16_26 - y1_37 - y37_58 - y16_35 - y1_46 - y5_16 - y49_50 - y38_59 - y19_27 - y27_40 - y30_36 - y11_32 - y8_45 - y19_45 - y42_47 - y11_41 - y0_50 - y23_24 - y41_60 - y20_37 - y4_20 - y52_60 - y4_38 - y1_14 - y13_16 - y4_47 - y24_25 - y16_21 - y34_57 - y1_32 - y37_53 - y16_30 - y15_34 - y46_49 - y38_45 - y7_39 - y18_48 - y26_61 - y7_57 - y19_22 - y8_31 - y19_31 - y30_40 - y11_36 - y19_49 - y0_54 - y41_55 - y4_15 - y4_24 - y1_9 - y1_18 - y37_39 - y45_52 - y37_48 - y45_61 - y56_61 - y5_6 - y18_25 - y18_34 - y15_47 - y26_47 - y26_56 - y7_52 - y8_17 - y18_52 - y0_22 - y19_35 - y30_35 - y0_31 - y30_44 - y11_40 - y44_46 - y52_59 - y4_19 - y33_55 - y2_58 - y1_13 - y14_41 - y37_43 - y14_59 - y15_24 - y37_61 - y18_20 - y7_29 - y15_51 - y18_47 - y18_56 - y48_57 - y11_17 - y25_37 - y33_59 - y2_53 - y14_27 - y3_36 - y45_51 - y3_45 - y37_47 - y22_58 - y15_28 - y36_60 - y47_60 - y18_33 - y11_12 - y48_61 - y33_36 - y25_32 - y10_43 - y33_45 - y41_58 - y44_45 - y2_48 - y2_57 - y3_22 - y22_44 - y14_49 - y15_23 - y18_19 - y36_55 - y15_32 - y17_51 - y17_60 - y29_43 - y40_43 - y29_52 - y6_59 - y29_61 - y10_20 - y2_25 - y25_27 - y33_49 - y3_17 - y3_35 - y14_35 - y3_44 - y36_41 - y15_18 - y28_46 - y6_27 - y9_60 - y0_2 - y48_51 - y21_34 - y6_45 - y40_56 - y21_52 - y10_24 - y10_33 - y33_44 - y25_40 - y2_47 - y32_48 - y43_48 - y51_61 - y2_56 - y24_53 - y3_30 - y7_9 - y17_41 - y6_22 - y58_60 - y9_55 - y6_31 - y29_42 - y40_51 - y10_19 - y39_55 - y2_15 - y20_60 - y31_60 - y32_52 - y13_57 - y24_57 - y16_53 - y36_40 - y9_23 - y36_49 - y47_49 - y5_52 - y9_50 - y21_24 - y50_60 - y10_14 - y2_10 - y10_23 - y23_60 - y51_60 - y1_41 - y1_59 - y13_61 - y35_61 - y17_22 - y17_40 - y3_56 - y17_49 - y9_45 - y50_55 - y42_51 - y21_28 - y20_41 - y10_18 - y20_50 - y12_46 - y2_23 - y4_42 - y31_59 - y12_55 - y23_55 - y13_29 - y4_60 - y13_38 - y16_43 - y13_56 - y16_52 - y5_15 - y17_26 - y17_35 - y9_31 - y5_42 - y28_44 - y27_48 - y42_46 - y21_23 - y27_57 - y8_53 - y42_55 - y20_27 - y0_58 - y39_40 - y10_13 - y23_32 - y39_49 - y20_45 - y31_45 - y2_18 - y13_15 - y4_46 - y53_60 - y1_40 - y5_10 - y46_48 - y38_44 - y46_57 - y9_17 - y38_53 - y28_30 - y49_53 - y15_60 - y9_35 - y27_43 - y30_48 - y0_44 - y8_57 - y20_22 - y42_59 - y2_4 - y20_49 - y31_49 - y4_41 - y23_54 - y34_60 - y24_37 - y1_44 - y16_42 - y9_12 - y38_57 - y7_51 - y8_25 - y30_43 - y8_52 - y30_61 - y11_57 - y12_22 - y20_35 - y12_31 - y31_44 - y12_40 - y23_40 - y23_49 - y53_59 - y34_55 - y37_51 - y16_28 - y3_58 - y46_47 - y26_41 - y9_16 - y38_52 - y15_59 - y49_61 - y19_20 - y27_33 - y27_42 - y8_38 - y0_34 - y11_43 - y30_56 - y31_39 - y4_31 - y23_44 - y1_16 - y37_46 - y34_59 - y45_59 - y37_55 - y15_27 - y26_27 - y26_36 - y18_41 - y26_54 - y38_56 - y18_59 - y19_24 - y27_37 - y11_20 - y19_33 - y30_33 - y0_38 - y19_51 - y4_17 - y44_53 - y25_49 - y1_2 - y25_58 - y34_36 - y3_48 - y37_50 - y37_59 - y7_27 - y26_40 - y38_42 - y15_49 - y7_45 - y18_45 - y7_54 - y18_54 - y11_24 - y30_37 - y21_56 - y0_42 - y41_43 - y41_61 - y25_53 - y1_6 - y2_60 - y14_34 - y37_45 - y22_56 - y3_61 - y7_31 - y18_31 - y29_46 - y40_46 - y8_23 - y11_19 - y11_28 - y21_60 - y33_34 - y41_47 - y4_16 - y44_52 - y33_61 - y44_61 - y14_20 - y22_33 - y14_38 - y37_49 - y14_56
 Subject to
C1: x0+x2-y0_2 <=1 
C2: x0+x5 <=1 
C3: x0+x8 <=1 
C4: x0+x15 <=1 
C5: x0+x18 <=1 
C6: x0+x20 <=1 
C7: x0+x22-y0_22 <=1 
C8: x0+x23 <=1 
C9: x0+x24 <=1 
C10: x0+x25 <=1 
C11: x0+x26 <=1 
C12: x0+x27 <=1 
C13: x0+x29 <=1 
C14: x0+x31-y0_31 <=1 
C15: x0+x32 <=1 
C16: x0+x33 <=1 
C17: x0+x34-y0_34 <=1 
C18: x0+x37 <=1 
C19: x0+x38-y0_38 <=1 
C20: x0+x41 <=1 
C21: x0+x42-y0_42 <=1 
C22: x0+x44-y0_44 <=1 
C23: x0+x45 <=1 
C24: x0+x49 <=1 
C25: x0+x50-y0_50 <=1 
C26: x0+x51-y0_51 <=1 
C27: x0+x52 <=1 
C28: x0+x54-y0_54 <=1 
C29: x0+x55 <=1 
C30: x0+x57 <=1 
C31: x0+x58-y0_58 <=1 
C32: x0+x60-y0_60 <=1 
C33: x1+x2-y1_2 <=1 
C34: x1+x4 <=1 
C35: x1+x5 <=1 
C36: x1+x6-y1_6 <=1 
C37: x1+x9-y1_9 <=1 
C38: x1+x10 <=1 
C39: x1+x12 <=1 
C40: x1+x13-y1_13 <=1 
C41: x1+x14-y1_14 <=1 
C42: x1+x15 <=1 
C43: x1+x16-y1_16 <=1 
C44: x1+x18-y1_18 <=1 
C45: x1+x20 <=1 
C46: x1+x23 <=1 
C47: x1+x29 <=1 
C48: x1+x32-y1_32 <=1 
C49: x1+x33-y1_33 <=1 
C50: x1+x35 <=1 
C51: x1+x37-y1_37 <=1 
C52: x1+x39 <=1 
C53: x1+x40-y1_40 <=1 
C54: x1+x41-y1_41 <=1 
C55: x1+x42 <=1 
C56: x1+x44-y1_44 <=1 
C57: x1+x46-y1_46 <=1 
C58: x1+x48 <=1 
C59: x1+x50 <=1 
C60: x1+x51 <=1 
C61: x1+x54 <=1 
C62: x1+x55 <=1 
C63: x1+x57-y1_57 <=1 
C64: x1+x59-y1_59 <=1 
C65: x2+x4-y2_4 <=1 
C66: x2+x5 <=1 
C67: x2+x6 <=1 
C68: x2+x9 <=1 
C69: x2+x10-y2_10 <=1 
C70: x2+x12 <=1 
C71: x2+x15-y2_15 <=1 
C72: x2+x16-y2_16 <=1 
C73: x2+x18-y2_18 <=1 
C74: x2+x21-y2_21 <=1 
C75: x2+x23-y2_23 <=1 
C76: x2+x24 <=1 
C77: x2+x25-y2_25 <=1 
C78: x2+x26 <=1 
C79: x2+x27-y2_27 <=1 
C80: x2+x29 <=1 
C81: x2+x30 <=1 
C82: x2+x33 <=1 
C83: x2+x34 <=1 
C84: x2+x37 <=1 
C85: x2+x38 <=1 
C86: x2+x39 <=1 
C87: x2+x40 <=1 
C88: x2+x41-y2_41 <=1 
C89: x2+x45 <=1 
C90: x2+x46 <=1 
C91: x2+x47-y2_47 <=1 
C92: x2+x48-y2_48 <=1 
C93: x2+x49 <=1 
C94: x2+x50-y2_50 <=1 
C95: x2+x52 <=1 
C96: x2+x53-y2_53 <=1 
C97: x2+x54 <=1 
C98: x2+x56-y2_56 <=1 
C99: x2+x57-y2_57 <=1 
C100: x2+x58-y2_58 <=1 
C101: x2+x60-y2_60 <=1 
C102: x2+x61 <=1 
C103: x3+x5-y3_5 <=1 
C104: x3+x8 <=1 
C105: x3+x9-y3_9 <=1 
C106: x3+x11 <=1 
C107: x3+x12 <=1 
C108: x3+x15 <=1 
C109: x3+x17-y3_17 <=1 
C110: x3+x18-y3_18 <=1 
C111: x3+x19 <=1 
C112: x3+x21 <=1 
C113: x3+x22-y3_22 <=1 
C114: x3+x23-y3_23 <=1 
C115: x3+x26 <=1 
C116: x3+x28-y3_28 <=1 
C117: x3+x29 <=1 
C118: x3+x30-y3_30 <=1 
C119: x3+x32 <=1 
C120: x3+x33 <=1 
C121: x3+x34 <=1 
C122: x3+x35-y3_35 <=1 
C123: x3+x36-y3_36 <=1 
C124: x3+x37 <=1 
C125: x3+x42 <=1 
C126: x3+x43 <=1 
C127: x3+x44-y3_44 <=1 
C128: x3+x45-y3_45 <=1 
C129: x3+x46 <=1 
C130: x3+x48-y3_48 <=1 
C131: x3+x51 <=1 
C132: x3+x54 <=1 
C133: x3+x56-y3_56 <=1 
C134: x3+x58-y3_58 <=1 
C135: x3+x59 <=1 
C136: x3+x61-y3_61 <=1 
C137: x4+x6 <=1 
C138: x4+x8 <=1 
C139: x4+x10 <=1 
C140: x4+x14 <=1 
C141: x4+x15-y4_15 <=1 
C142: x4+x16-y4_16 <=1 
C143: x4+x17-y4_17 <=1 
C144: x4+x19-y4_19 <=1 
C145: x4+x20-y4_20 <=1 
C146: x4+x22 <=1 
C147: x4+x23 <=1 
C148: x4+x24-y4_24 <=1 
C149: x4+x25 <=1 
C150: x4+x28 <=1 
C151: x4+x30-y4_30 <=1 
C152: x4+x31-y4_31 <=1 
C153: x4+x34 <=1 
C154: x4+x35 <=1 
C155: x4+x38-y4_38 <=1 
C156: x4+x41-y4_41 <=1 
C157: x4+x42-y4_42 <=1 
C158: x4+x46-y4_46 <=1 
C159: x4+x47-y4_47 <=1 
C160: x4+x48 <=1 
C161: x4+x50 <=1 
C162: x4+x51 <=1 
C163: x4+x52-y4_52 <=1 
C164: x4+x53-y4_53 <=1 
C165: x4+x56 <=1 
C166: x4+x57-y4_57 <=1 
C167: x4+x58-y4_58 <=1 
C168: x4+x60-y4_60 <=1 
C169: x4+x61 <=1 
C170: x5+x6-y5_6 <=1 
C171: x5+x8-y5_8 <=1 
C172: x5+x10-y5_10 <=1 
C173: x5+x13 <=1 
C174: x5+x15-y5_15 <=1 
C175: x5+x16-y5_16 <=1 
C176: x5+x22 <=1 
C177: x5+x23 <=1 
C178: x5+x25 <=1 
C179: x5+x26-y5_26 <=1 
C180: x5+x29 <=1 
C181: x5+x31-y5_31 <=1 
C182: x5+x32 <=1 
C183: x5+x35 <=1 
C184: x5+x36 <=1 
C185: x5+x40-y5_40 <=1 
C186: x5+x41 <=1 
C187: x5+x42-y5_42 <=1 
C188: x5+x44-y5_44 <=1 
C189: x5+x45 <=1 
C190: x5+x46 <=1 
C191: x5+x50-y5_50 <=1 
C192: x5+x51 <=1 
C193: x5+x52-y5_52 <=1 
C194: x5+x59-y5_59 <=1 
C195: x5+x60 <=1 
C196: x5+x61 <=1 
C197: x6+x10 <=1 
C198: x6+x12 <=1 
C199: x6+x13-y6_13 <=1 
C200: x6+x16 <=1 
C201: x6+x18 <=1 
C202: x6+x19 <=1 
C203: x6+x21 <=1 
C204: x6+x22-y6_22 <=1 
C205: x6+x23-y6_23 <=1 
C206: x6+x25 <=1 
C207: x6+x26 <=1 
C208: x6+x27-y6_27 <=1 
C209: x6+x28-y6_28 <=1 
C210: x6+x29-y6_29 <=1 
C211: x6+x31-y6_31 <=1 
C212: x6+x32-y6_32 <=1 
C213: x6+x33-y6_33 <=1 
C214: x6+x35 <=1 
C215: x6+x38 <=1 
C216: x6+x39 <=1 
C217: x6+x41 <=1 
C218: x6+x45-y6_45 <=1 
C219: x6+x48-y6_48 <=1 
C220: x6+x51-y6_51 <=1 
C221: x6+x52-y6_52 <=1 
C222: x6+x57-y6_57 <=1 
C223: x6+x58 <=1 
C224: x6+x59-y6_59 <=1 
C225: x6+x60 <=1 
C226: x6+x61 <=1 
C227: x7+x9-y7_9 <=1 
C228: x7+x10 <=1 
C229: x7+x11 <=1 
C230: x7+x17-y7_17 <=1 
C231: x7+x20 <=1 
C232: x7+x21 <=1 
C233: x7+x22 <=1 
C234: x7+x27-y7_27 <=1 
C235: x7+x29-y7_29 <=1 
C236: x7+x30 <=1 
C237: x7+x31-y7_31 <=1 
C238: x7+x34 <=1 
C239: x7+x35-y7_35 <=1 
C240: x7+x38 <=1 
C241: x7+x39-y7_39 <=1 
C242: x7+x44 <=1 
C243: x7+x45-y7_45 <=1 
C244: x7+x46 <=1 
C245: x7+x47 <=1 
C246: x7+x48 <=1 
C247: x7+x51-y7_51 <=1 
C248: x7+x52-y7_52 <=1 
C249: x7+x53 <=1 
C250: x7+x54-y7_54 <=1 
C251: x7+x55 <=1 
C252: x7+x57-y7_57 <=1 
C253: x7+x58-y7_58 <=1 
C254: x7+x60 <=1 
C255: x8+x9-y8_9 <=1 
C256: x8+x11 <=1 
C257: x8+x17-y8_17 <=1 
C258: x8+x18-y8_18 <=1 
C259: x8+x19 <=1 
C260: x8+x20 <=1 
C261: x8+x23-y8_23 <=1 
C262: x8+x24 <=1 
C263: x8+x25-y8_25 <=1 
C264: x8+x28 <=1 
C265: x8+x29 <=1 
C266: x8+x30 <=1 
C267: x8+x31-y8_31 <=1 
C268: x8+x32-y8_32 <=1 
C269: x8+x34 <=1 
C270: x8+x36 <=1 
C271: x8+x38-y8_38 <=1 
C272: x8+x39 <=1 
C273: x8+x42 <=1 
C274: x8+x45-y8_45 <=1 
C275: x8+x46-y8_46 <=1 
C276: x8+x48 <=1 
C277: x8+x49 <=1 
C278: x8+x50 <=1 
C279: x8+x51-y8_51 <=1 
C280: x8+x52-y8_52 <=1 
C281: x8+x53-y8_53 <=1 
C282: x8+x54 <=1 
C283: x8+x55-y8_55 <=1 
C284: x8+x56 <=1 
C285: x8+x57-y8_57 <=1 
C286: x8+x58 <=1 
C287: x8+x60 <=1 
C288: x8+x61 <=1 
C289: x9+x10-y9_10 <=1 
C290: x9+x12-y9_12 <=1 
C291: x9+x13 <=1 
C292: x9+x14 <=1 
C293: x9+x16-y9_16 <=1 
C294: x9+x17-y9_17 <=1 
C295: x9+x20 <=1 
C296: x9+x21 <=1 
C297: x9+x23-y9_23 <=1 
C298: x9+x24 <=1 
C299: x9+x25-y9_25 <=1 
C300: x9+x27 <=1 
C301: x9+x29 <=1 
C302: x9+x31-y9_31 <=1 
C303: x9+x32 <=1 
C304: x9+x34-y9_34 <=1 
C305: x9+x35-y9_35 <=1 
C306: x9+x36 <=1 
C307: x9+x37 <=1 
C308: x9+x38 <=1 
C309: x9+x39 <=1 
C310: x9+x42 <=1 
C311: x9+x45-y9_45 <=1 
C312: x9+x47-y9_47 <=1 
C313: x9+x48 <=1 
C314: x9+x49-y9_49 <=1 
C315: x9+x50-y9_50 <=1 
C316: x9+x51 <=1 
C317: x9+x54 <=1 
C318: x9+x55-y9_55 <=1 
C319: x9+x57 <=1 
C320: x9+x58-y9_58 <=1 
C321: x9+x60-y9_60 <=1 
C322: x9+x61 <=1 
C323: x10+x12 <=1 
C324: x10+x13-y10_13 <=1 
C325: x10+x14-y10_14 <=1 
C326: x10+x15 <=1 
C327: x10+x16 <=1 
C328: x10+x17 <=1 
C329: x10+x18-y10_18 <=1 
C330: x10+x19-y10_19 <=1 
C331: x10+x20-y10_20 <=1 
C332: x10+x22 <=1 
C333: x10+x23-y10_23 <=1 
C334: x10+x24-y10_24 <=1 
C335: x10+x25-y10_25 <=1 
C336: x10+x26 <=1 
C337: x10+x27 <=1 
C338: x10+x29 <=1 
C339: x10+x31-y10_31 <=1 
C340: x10+x32 <=1 
C341: x10+x33-y10_33 <=1 
C342: x10+x35 <=1 
C343: x10+x36 <=1 
C344: x10+x37 <=1 
C345: x10+x39 <=1 
C346: x10+x40 <=1 
C347: x10+x42 <=1 
C348: x10+x43-y10_43 <=1 
C349: x10+x45-y10_45 <=1 
C350: x10+x46 <=1 
C351: x10+x48 <=1 
C352: x10+x49 <=1 
C353: x10+x53 <=1 
C354: x10+x54-y10_54 <=1 
C355: x10+x57 <=1 
C356: x10+x58-y10_58 <=1 
C357: x11+x12-y11_12 <=1 
C358: x11+x13 <=1 
C359: x11+x15 <=1 
C360: x11+x17-y11_17 <=1 
C361: x11+x18 <=1 
C362: x11+x19-y11_19 <=1 
C363: x11+x20-y11_20 <=1 
C364: x11+x22 <=1 
C365: x11+x23 <=1 
C366: x11+x24-y11_24 <=1 
C367: x11+x28-y11_28 <=1 
C368: x11+x29 <=1 
C369: x11+x31 <=1 
C370: x11+x32-y11_32 <=1 
C371: x11+x33 <=1 
C372: x11+x34 <=1 
C373: x11+x36-y11_36 <=1 
C374: x11+x37 <=1 
C375: x11+x40-y11_40 <=1 
C376: x11+x41-y11_41 <=1 
C377: x11+x43-y11_43 <=1 
C378: x11+x46 <=1 
C379: x11+x47 <=1 
C380: x11+x50 <=1 
C381: x11+x53 <=1 
C382: x11+x54 <=1 
C383: x11+x57-y11_57 <=1 
C384: x11+x59 <=1 
C385: x11+x61 <=1 
C386: x12+x14 <=1 
C387: x12+x15 <=1 
C388: x12+x16 <=1 
C389: x12+x17 <=1 
C390: x12+x18 <=1 
C391: x12+x20 <=1 
C392: x12+x22-y12_22 <=1 
C393: x12+x26 <=1 
C394: x12+x28 <=1 
C395: x12+x31-y12_31 <=1 
C396: x12+x34-y12_34 <=1 
C397: x12+x35 <=1 
C398: x12+x36 <=1 
C399: x12+x37 <=1 
C400: x12+x38 <=1 
C401: x12+x39-y12_39 <=1 
C402: x12+x40-y12_40 <=1 
C403: x12+x42 <=1 
C404: x12+x43-y12_43 <=1 
C405: x12+x44-y12_44 <=1 
C406: x12+x45 <=1 
C407: x12+x46-y12_46 <=1 
C408: x12+x47-y12_47 <=1 
C409: x12+x48-y12_48 <=1 
C410: x12+x49 <=1 
C411: x12+x50 <=1 
C412: x12+x51 <=1 
C413: x12+x53 <=1 
C414: x12+x54 <=1 
C415: x12+x55-y12_55 <=1 
C416: x12+x57 <=1 
C417: x12+x58 <=1 
C418: x12+x61-y12_61 <=1 
C419: x13+x15-y13_15 <=1 
C420: x13+x16-y13_16 <=1 
C421: x13+x17 <=1 
C422: x13+x18 <=1 
C423: x13+x20 <=1 
C424: x13+x21 <=1 
C425: x13+x22 <=1 
C426: x13+x25 <=1 
C427: x13+x27-y13_27 <=1 
C428: x13+x29-y13_29 <=1 
C429: x13+x32-y13_32 <=1 
C430: x13+x34 <=1 
C431: x13+x35 <=1 
C432: x13+x38-y13_38 <=1 
C433: x13+x40-y13_40 <=1 
C434: x13+x41 <=1 
C435: x13+x42 <=1 
C436: x13+x46-y13_46 <=1 
C437: x13+x49-y13_49 <=1 
C438: x13+x50 <=1 
C439: x13+x51 <=1 
C440: x13+x53 <=1 
C441: x13+x54 <=1 
C442: x13+x56-y13_56 <=1 
C443: x13+x57-y13_57 <=1 
C444: x13+x61-y13_61 <=1 
C445: x14+x15-y14_15 <=1 
C446: x14+x16 <=1 
C447: x14+x17 <=1 
C448: x14+x18 <=1 
C449: x14+x19-y14_19 <=1 
C450: x14+x20-y14_20 <=1 
C451: x14+x23-y14_23 <=1 
C452: x14+x24-y14_24 <=1 
C453: x14+x27-y14_27 <=1 
C454: x14+x31 <=1 
C455: x14+x34-y14_34 <=1 
C456: x14+x35-y14_35 <=1 
C457: x14+x36 <=1 
C458: x14+x38-y14_38 <=1 
C459: x14+x40 <=1 
C460: x14+x41-y14_41 <=1 
C461: x14+x45 <=1 
C462: x14+x49-y14_49 <=1 
C463: x14+x51 <=1 
C464: x14+x52 <=1 
C465: x14+x53 <=1 
C466: x14+x54 <=1 
C467: x14+x55 <=1 
C468: x14+x56-y14_56 <=1 
C469: x14+x58 <=1 
C470: x14+x59-y14_59 <=1 
C471: x15+x18-y15_18 <=1 
C472: x15+x19 <=1 
C473: x15+x20 <=1 
C474: x15+x21 <=1 
C475: x15+x23-y15_23 <=1 
C476: x15+x24-y15_24 <=1 
C477: x15+x25 <=1 
C478: x15+x26 <=1 
C479: x15+x27-y15_27 <=1 
C480: x15+x28-y15_28 <=1 
C481: x15+x29 <=1 
C482: x15+x32-y15_32 <=1 
C483: x15+x34-y15_34 <=1 
C484: x15+x39 <=1 
C485: x15+x40 <=1 
C486: x15+x44 <=1 
C487: x15+x47-y15_47 <=1 
C488: x15+x48 <=1 
C489: x15+x49-y15_49 <=1 
C490: x15+x51-y15_51 <=1 
C491: x15+x52 <=1 
C492: x15+x53 <=1 
C493: x15+x54 <=1 
C494: x15+x56 <=1 
C495: x15+x58 <=1 
C496: x15+x59-y15_59 <=1 
C497: x15+x60-y15_60 <=1 
C498: x15+x61 <=1 
C499: x16+x18-y16_18 <=1 
C500: x16+x20 <=1 
C501: x16+x21-y16_21 <=1 
C502: x16+x26-y16_26 <=1 
C503: x16+x27-y16_27 <=1 
C504: x16+x28-y16_28 <=1 
C505: x16+x30-y16_30 <=1 
C506: x16+x32-y16_32 <=1 
C507: x16+x33 <=1 
C508: x16+x35-y16_35 <=1 
C509: x16+x36-y16_36 <=1 
C510: x16+x41 <=1 
C511: x16+x42-y16_42 <=1 
C512: x16+x43-y16_43 <=1 
C513: x16+x46-y16_46 <=1 
C514: x16+x47 <=1 
C515: x16+x50-y16_50 <=1 
C516: x16+x52-y16_52 <=1 
C517: x16+x53-y16_53 <=1 
C518: x16+x54 <=1 
C519: x16+x55-y16_55 <=1 
C520: x16+x59-y16_59 <=1 
C521: x16+x60 <=1 
C522: x17+x20 <=1 
C523: x17+x22-y17_22 <=1 
C524: x17+x23-y17_23 <=1 
C525: x17+x24 <=1 
C526: x17+x25-y17_25 <=1 
C527: x17+x26-y17_26 <=1 
C528: x17+x30 <=1 
C529: x17+x31 <=1 
C530: x17+x33-y17_33 <=1 
C531: x17+x34 <=1 
C532: x17+x35-y17_35 <=1 
C533: x17+x37 <=1 
C534: x17+x40-y17_40 <=1 
C535: x17+x41-y17_41 <=1 
C536: x17+x42 <=1 
C537: x17+x43-y17_43 <=1 
C538: x17+x44-y17_44 <=1 
C539: x17+x48-y17_48 <=1 
C540: x17+x49-y17_49 <=1 
C541: x17+x50 <=1 
C542: x17+x51-y17_51 <=1 
C543: x17+x52 <=1 
C544: x17+x53 <=1 
C545: x17+x54 <=1 
C546: x17+x56 <=1 
C547: x17+x57 <=1 
C548: x17+x58-y17_58 <=1 
C549: x17+x59 <=1 
C550: x17+x60-y17_60 <=1 
C551: x17+x61-y17_61 <=1 
C552: x18+x19-y18_19 <=1 
C553: x18+x20-y18_20 <=1 
C554: x18+x21-y18_21 <=1 
C555: x18+x22 <=1 
C556: x18+x24 <=1 
C557: x18+x25-y18_25 <=1 
C558: x18+x26-y18_26 <=1 
C559: x18+x29 <=1 
C560: x18+x30 <=1 
C561: x18+x31-y18_31 <=1 
C562: x18+x32 <=1 
C563: x18+x33-y18_33 <=1 
C564: x18+x34-y18_34 <=1 
C565: x18+x35 <=1 
C566: x18+x38 <=1 
C567: x18+x41-y18_41 <=1 
C568: x18+x42 <=1 
C569: x18+x44-y18_44 <=1 
C570: x18+x45-y18_45 <=1 
C571: x18+x47-y18_47 <=1 
C572: x18+x48-y18_48 <=1 
C573: x18+x49 <=1 
C574: x18+x52-y18_52 <=1 
C575: x18+x53 <=1 
C576: x18+x54-y18_54 <=1 
C577: x18+x56-y18_56 <=1 
C578: x18+x57 <=1 
C579: x18+x59-y18_59 <=1 
C580: x18+x60 <=1 
C581: x19+x20-y19_20 <=1 
C582: x19+x21 <=1 
C583: x19+x22-y19_22 <=1 
C584: x19+x23 <=1 
C585: x19+x24-y19_24 <=1 
C586: x19+x27-y19_27 <=1 
C587: x19+x28 <=1 
C588: x19+x29 <=1 
C589: x19+x31-y19_31 <=1 
C590: x19+x33-y19_33 <=1 
C591: x19+x35-y19_35 <=1 
C592: x19+x38 <=1 
C593: x19+x39 <=1 
C594: x19+x41-y19_41 <=1 
C595: x19+x44 <=1 
C596: x19+x45-y19_45 <=1 
C597: x19+x46-y19_46 <=1 
C598: x19+x48 <=1 
C599: x19+x49-y19_49 <=1 
C600: x19+x51-y19_51 <=1 
C601: x19+x53 <=1 
C602: x19+x54 <=1 
C603: x19+x55-y19_55 <=1 
C604: x19+x57 <=1 
C605: x19+x60 <=1 
C606: x19+x61 <=1 
C607: x20+x21 <=1 
C608: x20+x22-y20_22 <=1 
C609: x20+x23 <=1 
C610: x20+x26 <=1 
C611: x20+x27-y20_27 <=1 
C612: x20+x29-y20_29 <=1 
C613: x20+x31 <=1 
C614: x20+x32 <=1 
C615: x20+x33 <=1 
C616: x20+x34-y20_34 <=1 
C617: x20+x35-y20_35 <=1 
C618: x20+x36 <=1 
C619: x20+x37-y20_37 <=1 
C620: x20+x38 <=1 
C621: x20+x41-y20_41 <=1 
C622: x20+x42-y20_42 <=1 
C623: x20+x44 <=1 
C624: x20+x45-y20_45 <=1 
C625: x20+x47 <=1 
C626: x20+x48-y20_48 <=1 
C627: x20+x49-y20_49 <=1 
C628: x20+x50-y20_50 <=1 
C629: x20+x51 <=1 
C630: x20+x52 <=1 
C631: x20+x54 <=1 
C632: x20+x55 <=1 
C633: x20+x57-y20_57 <=1 
C634: x20+x59 <=1 
C635: x20+x60-y20_60 <=1 
C636: x20+x61-y20_61 <=1 
C637: x21+x23-y21_23 <=1 
C638: x21+x24-y21_24 <=1 
C639: x21+x25 <=1 
C640: x21+x26-y21_26 <=1 
C641: x21+x28-y21_28 <=1 
C642: x21+x29 <=1 
C643: x21+x32 <=1 
C644: x21+x33 <=1 
C645: x21+x34-y21_34 <=1 
C646: x21+x36 <=1 
C647: x21+x37 <=1 
C648: x21+x39 <=1 
C649: x21+x40 <=1 
C650: x21+x41-y21_41 <=1 
C651: x21+x42 <=1 
C652: x21+x43 <=1 
C653: x21+x44 <=1 
C654: x21+x45-y21_45 <=1 
C655: x21+x47 <=1 
C656: x21+x48 <=1 
C657: x21+x49-y21_49 <=1 
C658: x21+x52-y21_52 <=1 
C659: x21+x53 <=1 
C660: x21+x55 <=1 
C661: x21+x56-y21_56 <=1 
C662: x21+x59 <=1 
C663: x21+x60-y21_60 <=1 
C664: x21+x61 <=1 
C665: x22+x23-y22_23 <=1 
C666: x22+x25 <=1 
C667: x22+x27-y22_27 <=1 
C668: x22+x28-y22_28 <=1 
C669: x22+x30 <=1 
C670: x22+x33-y22_33 <=1 
C671: x22+x37-y22_37 <=1 
C672: x22+x42 <=1 
C673: x22+x44-y22_44 <=1 
C674: x22+x46 <=1 
C675: x22+x47 <=1 
C676: x22+x50 <=1 
C677: x22+x53 <=1 
C678: x22+x55 <=1 
C679: x22+x56-y22_56 <=1 
C680: x22+x57 <=1 
C681: x22+x58-y22_58 <=1 
C682: x22+x59 <=1 
C683: x22+x60 <=1 
C684: x23+x24-y23_24 <=1 
C685: x23+x26 <=1 
C686: x23+x27 <=1 
C687: x23+x29-y23_29 <=1 
C688: x23+x31 <=1 
C689: x23+x32-y23_32 <=1 
C690: x23+x34-y23_34 <=1 
C691: x23+x38-y23_38 <=1 
C692: x23+x39-y23_39 <=1 
C693: x23+x40-y23_40 <=1 
C694: x23+x41 <=1 
C695: x23+x44-y23_44 <=1 
C696: x23+x48 <=1 
C697: x23+x49-y23_49 <=1 
C698: x23+x52 <=1 
C699: x23+x54-y23_54 <=1 
C700: x23+x55-y23_55 <=1 
C701: x23+x57-y23_57 <=1 
C702: x23+x60-y23_60 <=1 
C703: x24+x25-y24_25 <=1 
C704: x24+x26-y24_26 <=1 
C705: x24+x27 <=1 
C706: x24+x29 <=1 
C707: x24+x30-y24_30 <=1 
C708: x24+x31-y24_31 <=1 
C709: x24+x33 <=1 
C710: x24+x36-y24_36 <=1 
C711: x24+x37-y24_37 <=1 
C712: x24+x38 <=1 
C713: x24+x39 <=1 
C714: x24+x40-y24_40 <=1 
C715: x24+x42 <=1 
C716: x24+x49-y24_49 <=1 
C717: x24+x50-y24_50 <=1 
C718: x24+x53-y24_53 <=1 
C719: x24+x57-y24_57 <=1 
C720: x24+x58 <=1 
C721: x25+x27-y25_27 <=1 
C722: x25+x28-y25_28 <=1 
C723: x25+x29-y25_29 <=1 
C724: x25+x30 <=1 
C725: x25+x31 <=1 
C726: x25+x32-y25_32 <=1 
C727: x25+x33 <=1 
C728: x25+x34 <=1 
C729: x25+x35 <=1 
C730: x25+x37-y25_37 <=1 
C731: x25+x38 <=1 
C732: x25+x39 <=1 
C733: x25+x40-y25_40 <=1 
C734: x25+x41 <=1 
C735: x25+x42-y25_42 <=1 
C736: x25+x49-y25_49 <=1 
C737: x25+x50 <=1 
C738: x25+x51 <=1 
C739: x25+x53-y25_53 <=1 
C740: x25+x54 <=1 
C741: x25+x58-y25_58 <=1 
C742: x25+x61 <=1 
C743: x26+x27-y26_27 <=1 
C744: x26+x31 <=1 
C745: x26+x34 <=1 
C746: x26+x35 <=1 
C747: x26+x36-y26_36 <=1 
C748: x26+x37 <=1 
C749: x26+x39 <=1 
C750: x26+x40-y26_40 <=1 
C751: x26+x41-y26_41 <=1 
C752: x26+x47-y26_47 <=1 
C753: x26+x48 <=1 
C754: x26+x50 <=1 
C755: x26+x54-y26_54 <=1 
C756: x26+x55 <=1 
C757: x26+x56-y26_56 <=1 
C758: x26+x61-y26_61 <=1 
C759: x27+x29 <=1 
C760: x27+x31 <=1 
C761: x27+x32 <=1 
C762: x27+x33-y27_33 <=1 
C763: x27+x36-y27_36 <=1 
C764: x27+x37-y27_37 <=1 
C765: x27+x40-y27_40 <=1 
C766: x27+x42-y27_42 <=1 
C767: x27+x43-y27_43 <=1 
C768: x27+x48-y27_48 <=1 
C769: x27+x49 <=1 
C770: x27+x55 <=1 
C771: x27+x57-y27_57 <=1 
C772: x27+x59-y27_59 <=1 
C773: x27+x60 <=1 
C774: x28+x29 <=1 
C775: x28+x30-y28_30 <=1 
C776: x28+x31 <=1 
C777: x28+x34 <=1 
C778: x28+x35 <=1 
C779: x28+x37 <=1 
C780: x28+x38 <=1 
C781: x28+x40 <=1 
C782: x28+x42 <=1 
C783: x28+x44-y28_44 <=1 
C784: x28+x46-y28_46 <=1 
C785: x28+x48 <=1 
C786: x28+x53 <=1 
C787: x28+x54 <=1 
C788: x28+x57-y28_57 <=1 
C789: x28+x58-y28_58 <=1 
C790: x28+x59 <=1 
C791: x28+x61 <=1 
C792: x29+x30 <=1 
C793: x29+x31-y29_31 <=1 
C794: x29+x32 <=1 
C795: x29+x34 <=1 
C796: x29+x36 <=1 
C797: x29+x38 <=1 
C798: x29+x39 <=1 
C799: x29+x40-y29_40 <=1 
C800: x29+x42-y29_42 <=1 
C801: x29+x43-y29_43 <=1 
C802: x29+x44 <=1 
C803: x29+x45-y29_45 <=1 
C804: x29+x46-y29_46 <=1 
C805: x29+x48 <=1 
C806: x29+x49-y29_49 <=1 
C807: x29+x52-y29_52 <=1 
C808: x29+x53 <=1 
C809: x29+x54 <=1 
C810: x29+x55 <=1 
C811: x29+x56 <=1 
C812: x29+x59 <=1 
C813: x29+x60 <=1 
C814: x29+x61-y29_61 <=1 
C815: x30+x33-y30_33 <=1 
C816: x30+x34 <=1 
C817: x30+x35-y30_35 <=1 
C818: x30+x36-y30_36 <=1 
C819: x30+x37-y30_37 <=1 
C820: x30+x40-y30_40 <=1 
C821: x30+x41-y30_41 <=1 
C822: x30+x43-y30_43 <=1 
C823: x30+x44-y30_44 <=1 
C824: x30+x45 <=1 
C825: x30+x46 <=1 
C826: x30+x48-y30_48 <=1 
C827: x30+x49 <=1 
C828: x30+x50-y30_50 <=1 
C829: x30+x52 <=1 
C830: x30+x53 <=1 
C831: x30+x54 <=1 
C832: x30+x55 <=1 
C833: x30+x56-y30_56 <=1 
C834: x30+x61-y30_61 <=1 
C835: x31+x33 <=1 
C836: x31+x37 <=1 
C837: x31+x38 <=1 
C838: x31+x39-y31_39 <=1 
C839: x31+x41 <=1 
C840: x31+x42 <=1 
C841: x31+x43-y31_43 <=1 
C842: x31+x44-y31_44 <=1 
C843: x31+x45-y31_45 <=1 
C844: x31+x46 <=1 
C845: x31+x47-y31_47 <=1 
C846: x31+x49-y31_49 <=1 
C847: x31+x51-y31_51 <=1 
C848: x31+x52-y31_52 <=1 
C849: x31+x54 <=1 
C850: x31+x55 <=1 
C851: x31+x56 <=1 
C852: x31+x57-y31_57 <=1 
C853: x31+x58 <=1 
C854: x31+x59-y31_59 <=1 
C855: x31+x60-y31_60 <=1 
C856: x31+x61 <=1 
C857: x32+x35-y32_35 <=1 
C858: x32+x36 <=1 
C859: x32+x40 <=1 
C860: x32+x41-y32_41 <=1 
C861: x32+x43 <=1 
C862: x32+x44 <=1 
C863: x32+x45 <=1 
C864: x32+x46 <=1 
C865: x32+x47 <=1 
C866: x32+x48-y32_48 <=1 
C867: x32+x49-y32_49 <=1 
C868: x32+x50 <=1 
C869: x32+x52-y32_52 <=1 
C870: x32+x53 <=1 
C871: x32+x55-y32_55 <=1 
C872: x32+x60 <=1 
C873: x32+x61 <=1 
C874: x33+x34-y33_34 <=1 
C875: x33+x36-y33_36 <=1 
C876: x33+x38 <=1 
C877: x33+x39 <=1 
C878: x33+x41 <=1 
C879: x33+x42 <=1 
C880: x33+x43 <=1 
C881: x33+x44-y33_44 <=1 
C882: x33+x45-y33_45 <=1 
C883: x33+x47 <=1 
C884: x33+x48 <=1 
C885: x33+x49-y33_49 <=1 
C886: x33+x51 <=1 
C887: x33+x52 <=1 
C888: x33+x54 <=1 
C889: x33+x55-y33_55 <=1 
C890: x33+x56 <=1 
C891: x33+x58 <=1 
C892: x33+x59-y33_59 <=1 
C893: x33+x61-y33_61 <=1 
C894: x34+x36-y34_36 <=1 
C895: x34+x37 <=1 
C896: x34+x38 <=1 
C897: x34+x39 <=1 
C898: x34+x42 <=1 
C899: x34+x43 <=1 
C900: x34+x44 <=1 
C901: x34+x49 <=1 
C902: x34+x50 <=1 
C903: x34+x55-y34_55 <=1 
C904: x34+x56 <=1 
C905: x34+x57-y34_57 <=1 
C906: x34+x58-y34_58 <=1 
C907: x34+x59-y34_59 <=1 
C908: x34+x60-y34_60 <=1 
C909: x34+x61 <=1 
C910: x35+x37 <=1 
C911: x35+x38 <=1 
C912: x35+x39 <=1 
C913: x35+x40-y35_40 <=1 
C914: x35+x41 <=1 
C915: x35+x43 <=1 
C916: x35+x46-y35_46 <=1 
C917: x35+x49-y35_49 <=1 
C918: x35+x53 <=1 
C919: x35+x57 <=1 
C920: x35+x58-y35_58 <=1 
C921: x35+x59 <=1 
C922: x35+x60 <=1 
C923: x35+x61-y35_61 <=1 
C924: x36+x37-y36_37 <=1 
C925: x36+x38-y36_38 <=1 
C926: x36+x40-y36_40 <=1 
C927: x36+x41-y36_41 <=1 
C928: x36+x42 <=1 
C929: x36+x45 <=1 
C930: x36+x47 <=1 
C931: x36+x49-y36_49 <=1 
C932: x36+x51-y36_51 <=1 
C933: x36+x52-y36_52 <=1 
C934: x36+x53 <=1 
C935: x36+x54 <=1 
C936: x36+x55-y36_55 <=1 
C937: x36+x56-y36_56 <=1 
C938: x36+x57 <=1 
C939: x36+x60-y36_60 <=1 
C940: x37+x39-y37_39 <=1 
C941: x37+x43-y37_43 <=1 
C942: x37+x45-y37_45 <=1 
C943: x37+x46-y37_46 <=1 
C944: x37+x47-y37_47 <=1 
C945: x37+x48-y37_48 <=1 
C946: x37+x49-y37_49 <=1 
C947: x37+x50-y37_50 <=1 
C948: x37+x51-y37_51 <=1 
C949: x37+x52 <=1 
C950: x37+x53-y37_53 <=1 
C951: x37+x54 <=1 
C952: x37+x55-y37_55 <=1 
C953: x37+x56 <=1 
C954: x37+x57 <=1 
C955: x37+x58-y37_58 <=1 
C956: x37+x59-y37_59 <=1 
C957: x37+x61-y37_61 <=1 
C958: x38+x42-y38_42 <=1 
C959: x38+x43 <=1 
C960: x38+x44-y38_44 <=1 
C961: x38+x45-y38_45 <=1 
C962: x38+x46 <=1 
C963: x38+x47 <=1 
C964: x38+x48 <=1 
C965: x38+x49 <=1 
C966: x38+x50 <=1 
C967: x38+x52-y38_52 <=1 
C968: x38+x53-y38_53 <=1 
C969: x38+x54 <=1 
C970: x38+x56-y38_56 <=1 
C971: x38+x57-y38_57 <=1 
C972: x38+x58 <=1 
C973: x38+x59-y38_59 <=1 
C974: x38+x60-y38_60 <=1 
C975: x39+x40-y39_40 <=1 
C976: x39+x42 <=1 
C977: x39+x43 <=1 
C978: x39+x46-y39_46 <=1 
C979: x39+x48-y39_48 <=1 
C980: x39+x49-y39_49 <=1 
C981: x39+x50 <=1 
C982: x39+x51 <=1 
C983: x39+x52-y39_52 <=1 
C984: x39+x53 <=1 
C985: x39+x55-y39_55 <=1 
C986: x39+x57-y39_57 <=1 
C987: x39+x58 <=1 
C988: x39+x60-y39_60 <=1 
C989: x40+x42 <=1 
C990: x40+x43-y40_43 <=1 
C991: x40+x44 <=1 
C992: x40+x46-y40_46 <=1 
C993: x40+x47 <=1 
C994: x40+x48 <=1 
C995: x40+x49-y40_49 <=1 
C996: x40+x50-y40_50 <=1 
C997: x40+x51-y40_51 <=1 
C998: x40+x53 <=1 
C999: x40+x54 <=1 
C1000: x40+x55 <=1 
C1001: x40+x56-y40_56 <=1 
C1002: x40+x57 <=1 
C1003: x40+x58-y40_58 <=1 
C1004: x40+x59 <=1 
C1005: x41+x42 <=1 
C1006: x41+x43-y41_43 <=1 
C1007: x41+x45 <=1 
C1008: x41+x46 <=1 
C1009: x41+x47-y41_47 <=1 
C1010: x41+x48 <=1 
C1011: x41+x51 <=1 
C1012: x41+x55-y41_55 <=1 
C1013: x41+x57 <=1 
C1014: x41+x58-y41_58 <=1 
C1015: x41+x59 <=1 
C1016: x41+x60-y41_60 <=1 
C1017: x41+x61-y41_61 <=1 
C1018: x42+x43 <=1 
C1019: x42+x44-y42_44 <=1 
C1020: x42+x45 <=1 
C1021: x42+x46-y42_46 <=1 
C1022: x42+x47-y42_47 <=1 
C1023: x42+x48-y42_48 <=1 
C1024: x42+x49 <=1 
C1025: x42+x51-y42_51 <=1 
C1026: x42+x52 <=1 
C1027: x42+x53 <=1 
C1028: x42+x55-y42_55 <=1 
C1029: x42+x56 <=1 
C1030: x42+x59-y42_59 <=1 
C1031: x42+x61-y42_61 <=1 
C1032: x43+x44-y43_44 <=1 
C1033: x43+x46 <=1 
C1034: x43+x47 <=1 
C1035: x43+x48-y43_48 <=1 
C1036: x43+x49-y43_49 <=1 
C1037: x43+x50 <=1 
C1038: x43+x51 <=1 
C1039: x43+x53 <=1 
C1040: x43+x55-y43_55 <=1 
C1041: x43+x58-y43_58 <=1 
C1042: x43+x60-y43_60 <=1 
C1043: x44+x45-y44_45 <=1 
C1044: x44+x46-y44_46 <=1 
C1045: x44+x52-y44_52 <=1 
C1046: x44+x53-y44_53 <=1 
C1047: x44+x56-y44_56 <=1 
C1048: x44+x58 <=1 
C1049: x44+x59 <=1 
C1050: x44+x61-y44_61 <=1 
C1051: x45+x46 <=1 
C1052: x45+x50 <=1 
C1053: x45+x51-y45_51 <=1 
C1054: x45+x52-y45_52 <=1 
C1055: x45+x53 <=1 
C1056: x45+x57 <=1 
C1057: x45+x59-y45_59 <=1 
C1058: x45+x61-y45_61 <=1 
C1059: x46+x47-y46_47 <=1 
C1060: x46+x48-y46_48 <=1 
C1061: x46+x49-y46_49 <=1 
C1062: x46+x52 <=1 
C1063: x46+x56 <=1 
C1064: x46+x57-y46_57 <=1 
C1065: x46+x58 <=1 
C1066: x46+x60 <=1 
C1067: x47+x48 <=1 
C1068: x47+x49-y47_49 <=1 
C1069: x47+x52-y47_52 <=1 
C1070: x47+x55 <=1 
C1071: x47+x56 <=1 
C1072: x47+x57-y47_57 <=1 
C1073: x47+x60-y47_60 <=1 
C1074: x48+x50 <=1 
C1075: x48+x51-y48_51 <=1 
C1076: x48+x53 <=1 
C1077: x48+x54-y48_54 <=1 
C1078: x48+x57-y48_57 <=1 
C1079: x48+x59 <=1 
C1080: x48+x60 <=1 
C1081: x48+x61-y48_61 <=1 
C1082: x49+x50-y49_50 <=1 
C1083: x49+x53-y49_53 <=1 
C1084: x49+x54 <=1 
C1085: x49+x55-y49_55 <=1 
C1086: x49+x56 <=1 
C1087: x49+x59 <=1 
C1088: x49+x60-y49_60 <=1 
C1089: x49+x61-y49_61 <=1 
C1090: x50+x53-y50_53 <=1 
C1091: x50+x54 <=1 
C1092: x50+x55-y50_55 <=1 
C1093: x50+x56 <=1 
C1094: x50+x58 <=1 
C1095: x50+x59 <=1 
C1096: x50+x60-y50_60 <=1 
C1097: x50+x61-y50_61 <=1 
C1098: x51+x53 <=1 
C1099: x51+x57 <=1 
C1100: x51+x59 <=1 
C1101: x51+x60-y51_60 <=1 
C1102: x51+x61-y51_61 <=1 
C1103: x52+x56 <=1 
C1104: x52+x59-y52_59 <=1 
C1105: x52+x60-y52_60 <=1 
C1106: x53+x54 <=1 
C1107: x53+x57 <=1 
C1108: x53+x59-y53_59 <=1 
C1109: x53+x60-y53_60 <=1 
C1110: x53+x61 <=1 
C1111: x54+x58 <=1 
C1112: x54+x59 <=1 
C1113: x54+x60-y54_60 <=1 
C1114: x54+x61 <=1 
C1115: x55+x56-y55_56 <=1 
C1116: x55+x60-y55_60 <=1 
C1117: x56+x58 <=1 
C1118: x56+x61-y56_61 <=1 
C1119: x57+x59 <=1 
C1120: x58+x59 <=1 
C1121: x58+x60-y58_60 <=1 
C1122: x59+x60 <=1 

binary
x0
x1
x2
x3
x4
x5
x6
x7
x8
x9
x10
x11
x12
x13
x14
x15
x16
x17
x18
x19
x20
x21
x22
x23
x24
x25
x26
x27
x28
x29
x30
x31
x32
x33
x34
x35
x36
x37
x38
x39
x40
x41
x42
x43
x44
x45
x46
x47
x48
x49
x50
x51
x52
x53
x54
x55
x56
x57
x58
x59
x60
x61
