problem_generation/data/GISP/train/er_n=62_m=1122_p=0.60_SET2_setparam=100.00_alpha=0.50_230.sol
objective value:                                 1274
x1                                                  1 	(obj:100)
x9                                                  1 	(obj:100)
x11                                                 1 	(obj:100)
x16                                                 1 	(obj:100)
x19                                                 1 	(obj:100)
x25                                                 1 	(obj:100)
x26                                                 1 	(obj:100)
x40                                                 1 	(obj:100)
x43                                                 1 	(obj:100)
x45                                                 1 	(obj:100)
x49                                                 1 	(obj:100)
x52                                                 1 	(obj:100)
x58                                                 1 	(obj:100)
y9_49                                               1 	(obj:-1)
y9_58                                               1 	(obj:-1)
y40_49                                              1 	(obj:-1)
y40_58                                              1 	(obj:-1)
y9_25                                               1 	(obj:-1)
y43_49                                              1 	(obj:-1)
y43_58                                              1 	(obj:-1)
y16_26                                              1 	(obj:-1)
y19_45                                              1 	(obj:-1)
y19_49                                              1 	(obj:-1)
y1_9                                                1 	(obj:-1)
y45_52                                              1 	(obj:-1)
y11_40                                              1 	(obj:-1)
y40_43                                              1 	(obj:-1)
y25_40                                              1 	(obj:-1)
y9_45                                               1 	(obj:-1)
y16_43                                              1 	(obj:-1)
y16_52                                              1 	(obj:-1)
y1_40                                               1 	(obj:-1)
y9_16                                               1 	(obj:-1)
y11_43                                              1 	(obj:-1)
y1_16                                               1 	(obj:-1)
y25_49                                              1 	(obj:-1)
y25_58                                              1 	(obj:-1)
y26_40                                              1 	(obj:-1)
y11_19                                              1 	(obj:-1)
